96 8
11 176
63 18
1 132
8 34
56 2
8 125
42 110
7 100
99 7
33 54
56 32
41 62
61 5
10 85
30 2
76 29
41 106
75 79
51 69
68 19
44 32
34 137
85 10
56 90
19 112
31 69
47 93
90 1
12 85
41 34
26 109
40 41
23 161
29 60
58 56
73 81
44 33
100 55
13 35
1 186
3 3
51 31
24 74
67 37
12 102
58 35
21 2
81 9
79 43
45 15
62 83
88 21
65 48
91 7
41 78
24 79
20 156
69 32
45 71
18 173
90 38
6 131
20 13
20 197
15 36
41 16
51 70
11 37
75 50
4 49
7 159
67 26
46 60
14 152
63 41
1 7
8 168
16 135
53 91
2 70
99 35
50 25
91 21
6 90
8 97
21 23
86 23
4 36
13 56
44 77
2 189
82 45
66 35
30 93
61 22
9 150
4 189
93 4
8 92
